\ENCODING=ISO-8859-1
\Problem name: instances

Minimize
 obj:
Subject To
 c1:  x1 + x2 + x3 + x4 + x5  = 1
 c2:  x6 + x7 + x8 + x9 + x10  = 1
 c3:  x11 + x12 + x13 + x14 + x15  = 1
 c4:  x16 + x17 + x18 + x19 + x20  = 1
 c5:  x21 + x22 + x23 + x24 + x25  = 1
 c6:  x1 + x6 + x11 + x16 + x21  = 1
 c7:  x2 + x7 + x12 + x17 + x22  = 1
 c8:  x3 + x8 + x13 + x18 + x23  = 1
 c9:  x4 + x9 + x14 + x19 + x24  = 1
 c10: x5 + x10 + x15 + x20 + x25  = 1
Bounds
 0 <= x1 <= 1
 0 <= x2 <= 1
 0 <= x3 <= 1
 0 <= x4 <= 1
 0 <= x5 <= 1
 0 <= x6 <= 1
 0 <= x7 <= 1
 0 <= x8 <= 1
 0 <= x9 <= 1
 0 <= x10 <= 1
 0 <= x11 <= 1
 0 <= x12 <= 1
 0 <= x13 <= 1
 0 <= x14 <= 1
 0 <= x15 <= 1
 0 <= x16 <= 1
 0 <= x17 <= 1
 0 <= x18 <= 1
 0 <= x19 <= 1
 0 <= x20 <= 1
 0 <= x21 <= 1
 0 <= x22 <= 1
 0 <= x23 <= 1
 0 <= x24 <= 1
 0 <= x25 <= 1
Binaries
 x1  x2  x3  x4  x5  x6  x7  x8  x9  x10  x11  x12  x13  x14  x15  x16  x17 
 x18  x19  x20  x21  x22  x23  x24  x25 
End
